qbf_easy_train/easy_3829_UNSAT.qdimacs
p cnf 34 93
a 10 5 15 0
e 1 2 3 4 6 7 8 9 11 12 13 14 16 17 18 19 20 21 22 23 24 25 26 27 28 29 30 31 32 33 34 0
4 -2 0
4 3 0
2 -3 -4 0
1 -4 -5 0
-1 4 -5 0
1 4 5 0
-1 -4 5 0
7 6 0
7 3 0
-6 -3 -7 0
-7 -3 -8 0
7 3 -8 0
-7 3 8 0
7 -3 8 0
-9 2 0
-9 -8 0
-2 8 9 0
-11 -9 0
-11 10 0
9 -10 11 0
-12 5 0
-12 -11 0
-5 11 12 0
-4 13 0
4 13 0
14 2 0
14 -9 0
-2 9 -14 0
-15 -13 0
-15 14 0
13 -14 15 0
16 7 0
16 9 0
-7 -9 -16 0
-2 -8 -17 0
2 8 -17 0
-2 8 17 0
2 -8 17 0
18 -17 0
18 -10 0
17 10 -18 0
-16 18 -19 0
16 -18 -19 0
-16 -18 19 0
16 18 19 0
20 10 0
20 -2 0
-10 2 -20 0
-14 -21 -22 0
14 21 -22 0
-14 21 22 0
14 -21 22 0
-23 20 0
-23 22 0
-20 -22 23 0
24 19 0
24 23 0
-19 -23 -24 0
25 15 0
25 -24 0
-15 24 -25 0
26 21 0
26 14 0
-21 -14 -26 0
27 -17 0
27 26 0
17 -26 -27 0
-25 27 -28 0
25 -27 -28 0
-25 -27 28 0
25 27 28 0
-31 1 0
-31 -30 0
-1 30 31 0
32 -29 0
32 31 0
29 -31 -32 0
-33 -28 0
-33 32 0
28 -32 33 0
-12 33 -34 0
12 -33 -34 0
-12 -33 34 0
12 33 34 0
-21 17 -5 30 -3 -34 16 0
3 6 -29 32 -28 30 0
9 -20 3 -6 0
-17 26 28 25 0
30 -1 26 -14 -15 0
-3 23 33 -17 -34 -1 0
-15 -21 -26 4 -20 -29 -5 0
3 8 10 19 -32 -18 0
34 0
