sat_easy_train/easy_3829_UNSAT.dimacs
p cnf 148 501
-1 -2 -3 0
1 2 -3 0
-1 2 3 0
1 -2 3 0
-3 -4 -5 0
3 4 -5 0
-3 4 5 0
3 -4 5 0
-5 -6 -7 0
5 6 -7 0
-5 6 7 0
5 -6 7 0
10 -9 0
10 9 0
11 10 0
11 5 0
-10 -5 -11 0
-12 11 0
-12 -1 0
-11 1 12 0
13 -8 0
13 -12 0
8 12 -13 0
-14 7 0
-14 13 0
-7 -13 14 0
16 -6 0
16 2 0
6 -2 -16 0
19 17 0
19 18 0
-17 -18 -19 0
-20 -16 0
-20 19 0
16 -19 20 0
22 20 0
22 -3 0
-20 3 -22 0
23 1 0
23 -22 0
-1 22 -23 0
21 -23 -24 0
-21 23 -24 0
21 23 24 0
-21 -23 24 0
-25 -20 0
-25 24 0
20 -24 25 0
-15 25 -26 0
15 -25 -26 0
-15 -25 26 0
15 25 26 0
19 8 -27 0
-19 -8 -27 0
19 -8 27 0
-19 8 27 0
-29 -27 0
-29 -28 0
27 28 29 0
30 20 0
30 29 0
-20 -29 -30 0
-31 21 -32 0
31 -21 -32 0
-31 -21 32 0
31 21 32 0
33 30 0
33 -32 0
-30 32 -33 0
35 2 0
35 -34 0
-2 34 -35 0
33 -35 -36 0
-33 35 -36 0
33 35 36 0
-33 -35 36 0
-26 -36 -37 0
26 36 -37 0
-26 36 37 0
26 -36 37 0
-38 -20 0
-38 19 0
20 -19 38 0
41 -39 0
41 40 0
39 -40 -41 0
42 -38 0
42 41 0
38 -41 -42 0
37 42 -43 0
-37 -42 -43 0
37 -42 43 0
-37 42 43 0
18 4 -44 0
-18 -4 -44 0
18 -4 44 0
-18 4 44 0
-33 -16 -45 0
33 16 -45 0
-33 16 45 0
33 -16 45 0
46 -44 0
46 45 0
44 -45 -46 0
47 43 0
47 -46 0
-43 46 -47 0
14 -47 -48 0
-14 47 -48 0
14 47 48 0
-14 -47 48 0
-49 -3 0
-49 12 0
3 -12 49 0
-50 15 0
-50 19 0
-15 -19 50 0
-51 -49 0
-51 -50 0
49 50 51 0
48 51 -52 0
-48 -51 -52 0
48 -51 52 0
-48 51 52 0
53 35 0
53 -29 0
-35 29 -53 0
53 5 -54 0
-53 -5 -54 0
53 -5 54 0
-53 5 54 0
-17 28 -55 0
17 -28 -55 0
-17 -28 55 0
17 28 55 0
34 -55 -56 0
-34 55 -56 0
34 55 56 0
-34 -55 56 0
57 -15 0
57 56 0
15 -56 -57 0
-25 -8 -58 0
25 8 -58 0
-25 8 58 0
25 -8 58 0
59 58 0
59 -20 0
-58 20 -59 0
-60 57 0
-60 -59 0
-57 59 60 0
54 60 -61 0
-54 -60 -61 0
54 -60 61 0
-54 60 61 0
8 39 -62 0
-8 -39 -62 0
8 -39 62 0
-8 39 62 0
-17 63 0
17 63 0
-64 38 0
-64 63 0
-38 -63 64 0
65 -64 0
65 -3 0
64 3 -65 0
-27 65 -66 0
27 -65 -66 0
-27 -65 66 0
27 65 66 0
67 -62 0
67 -66 0
62 66 -67 0
-68 -17 0
-68 31 0
17 -31 68 0
69 67 0
69 68 0
-67 -68 -69 0
61 69 -70 0
-61 -69 -70 0
61 -69 70 0
-61 69 70 0
71 -5 0
71 -23 0
5 23 -71 0
-72 -70 0
-72 71 0
70 -71 72 0
73 -52 0
73 72 0
52 -72 -73 0
74 15 0
74 39 0
-15 -39 -74 0
-75 35 0
-75 74 0
-35 -74 75 0
-76 22 0
-76 28 0
-22 -28 76 0
77 -3 0
77 76 0
3 -76 -77 0
-75 77 -78 0
75 -77 -78 0
-75 -77 78 0
75 77 78 0
-79 -32 0
-79 -74 0
32 74 79 0
80 79 0
80 28 0
-79 -28 -80 0
81 22 0
81 8 0
-22 -8 -81 0
81 31 -82 0
-81 -31 -82 0
81 -31 82 0
-81 31 82 0
83 80 0
83 -82 0
-80 82 -83 0
-84 28 0
-84 31 0
-28 -31 84 0
85 83 0
85 84 0
-83 -84 -85 0
86 15 0
86 11 0
-15 -11 -86 0
87 53 0
87 -86 0
-53 86 -87 0
-88 -28 0
-88 3 0
28 -3 88 0
-89 88 0
-89 -8 0
-88 8 89 0
-90 89 0
-90 4 0
-89 -4 90 0
-90 9 -91 0
90 -9 -91 0
-90 -9 91 0
90 9 91 0
87 91 -92 0
-87 -91 -92 0
87 -91 92 0
-87 91 92 0
1 -8 -93 0
-1 8 -93 0
1 8 93 0
-1 -8 93 0
94 65 0
94 93 0
-65 -93 -94 0
92 94 -95 0
-92 -94 -95 0
92 -94 95 0
-92 94 95 0
96 -9 0
96 -27 0
9 27 -96 0
-97 -3 0
-97 -8 0
3 8 97 0
-10 53 -98 0
10 -53 -98 0
-10 -53 98 0
10 53 98 0
99 -35 0
99 -3 0
35 3 -99 0
-98 -99 -100 0
98 99 -100 0
-98 99 100 0
98 -99 100 0
101 -97 0
101 -100 0
97 100 -101 0
-102 96 0
-102 101 0
-96 -101 102 0
103 -28 0
103 76 0
28 -76 -103 0
-104 102 0
-104 103 0
-102 -103 104 0
-105 74 0
-105 -17 0
-74 17 105 0
106 104 0
106 -105 0
-104 105 -106 0
-107 -95 0
-107 106 0
95 -106 107 0
108 -85 0
108 -107 0
85 107 -108 0
-109 -78 0
-109 -108 0
78 108 109 0
110 76 0
110 -28 0
-76 28 -110 0
74 -110 -111 0
-74 110 -111 0
74 110 111 0
-74 -110 111 0
112 -88 0
112 34 0
88 -34 -112 0
113 -112 0
113 22 0
112 -22 -113 0
114 -111 0
114 113 0
111 -113 -114 0
-115 -28 0
-115 21 0
28 -21 115 0
116 -38 0
116 -115 0
38 115 -116 0
-117 -114 0
-117 -116 0
114 116 117 0
109 -117 -118 0
-109 117 -118 0
109 117 118 0
-109 -117 118 0
-119 65 0
-119 35 0
-65 -35 119 0
-120 119 0
-120 21 0
-119 -21 120 0
118 120 -121 0
-118 -120 -121 0
118 -120 121 0
-118 120 121 0
122 73 0
122 -121 0
-73 121 -122 0
2 -15 -123 0
-2 15 -123 0
2 15 123 0
-2 -15 123 0
-124 -29 0
-124 123 0
29 -123 124 0
125 124 0
125 27 0
-124 -27 -125 0
-15 126 -127 0
15 -126 -127 0
-15 -126 127 0
15 126 127 0
128 -65 0
128 -6 0
65 6 -128 0
123 -75 -129 0
-123 75 -129 0
123 75 129 0
-123 -75 129 0
130 128 0
130 -129 0
-128 129 -130 0
131 -2 0
131 -119 0
2 119 -131 0
132 130 0
132 -131 0
-130 131 -132 0
133 -123 0
133 -75 0
123 75 -133 0
-134 -133 0
-134 -44 0
133 44 134 0
-132 -134 -135 0
132 134 -135 0
-132 134 135 0
132 -134 135 0
-127 -135 -136 0
127 135 -136 0
-127 135 136 0
127 -135 136 0
-137 93 0
-137 21 0
-93 -21 137 0
138 119 0
138 112 0
-119 -112 -138 0
139 137 0
139 138 0
-137 -138 -139 0
-140 112 0
-140 21 0
-112 -21 140 0
141 -139 0
141 -140 0
139 140 -141 0
142 75 0
142 16 0
-75 -16 -142 0
-89 81 -143 0
89 -81 -143 0
-89 -81 143 0
89 81 143 0
-142 -143 -144 0
142 143 -144 0
-142 143 144 0
142 -143 144 0
145 141 0
145 144 0
-141 -144 -145 0
146 -136 0
146 145 0
136 -145 -146 0
125 146 -147 0
-125 -146 -147 0
125 -146 147 0
-125 146 147 0
-148 -122 0
-148 147 0
122 -147 148 0
27 120 77 0
-9 27 -111 -67 0
89 -129 -62 -7 126 0
104 -45 -137 129 0
-131 -138 0
14 -117 134 0
98 -67 0
19 -67 2 0
133 -62 64 -74 0
-110 125 -114 -92 -41 0
-141 120 -131 0
43 83 -26 -4 -41 0
-116 72 123 -135 -19 0
-57 -5 -72 -22 -90 0
-67 -106 0
46 82 -130 -119 0
121 87 89 41 124 0
-11 84 0
57 11 -73 0
76 -17 -147 0
31 -26 -36 90 -96 -43 0
134 121 0
-84 131 48 144 32 0
-2 136 49 121 102 144 0
76 -41 96 -101 0
-91 52 130 -76 118 122 0
-109 124 -15 -49 -62 94 0
-41 8 65 -19 0
-44 -113 0
107 128 100 45 -110 -104 0
7 137 -147 0
-85 111 125 -141 -67 43 0
28 69 0
100 34 90 0
10 70 146 87 -82 0
-37 -31 0
91 -133 0
-44 60 -21 0
62 -86 -144 -87 125 -146 0
-123 36 -41 -40 0
-62 -94 75 111 0
-5 73 -116 40 0
-74 41 0
90 -148 14 -105 99 -36 0
-84 -136 -131 -69 86 -44 0
-70 67 -96 0
18 -48 91 3 136 106 0
-51 -8 25 46 0
-87 92 0
87 13 0
-116 144 48 0
-21 50 -46 72 -136 9 0
83 20 -123 0
102 -130 -63 -107 0
-51 138 79 -6 -74 0
13 -38 -40 -49 147 -23 0
-94 108 -122 -25 39 0
-23 -130 42 0
144 -101 -33 0
118 -102 -70 0
77 -45 74 128 111 0
86 -54 0
-77 -30 65 -53 145 0
5 111 147 129 10 0
-69 -39 33 76 -124 122 0
148 0
